NAME : RWPToy-5-2
COMMENT : Toy. 5 postmen. Max route 31304=21599.76s=6h.
TYPE : TSP
DIMENSION : 6
VEHICLES : 5
SCALE : 100000
DISTANCE : 21599.760000
EDGE_WEIGHT_TYPE : EXPLICIT
EDGE_WEIGHT_FORMAT : UPPER_ROW
EDGE_WEIGHT_SECTION
614.203831
1238.439826
1124.540468
1074.207601
1107.583287

693.402645
1676.182930
882.862412
1515.924562

2263.016954
935.351557
2074.292414

1487.071442
615.930281

1205.486117

DEPOT_SECTION
1
-1
EOF
